c graph colorability of graph:
c random_regular_graph(5, 98).
c
c Generated with `cnfgen`
c (C) 2012-2016 Massimo Lauria <lauria.massimo@gmail.com>
c https://massimolauria.github.io/cnfgen
c
p cnf 294 1127
1 2 3 0
-1 -2 0
-1 -3 0
-2 -3 0
4 5 6 0
-4 -5 0
-4 -6 0
-5 -6 0
7 8 9 0
-7 -8 0
-7 -9 0
-8 -9 0
10 11 12 0
-10 -11 0
-10 -12 0
-11 -12 0
13 14 15 0
-13 -14 0
-13 -15 0
-14 -15 0
16 17 18 0
-16 -17 0
-16 -18 0
-17 -18 0
19 20 21 0
-19 -20 0
-19 -21 0
-20 -21 0
22 23 24 0
-22 -23 0
-22 -24 0
-23 -24 0
25 26 27 0
-25 -26 0
-25 -27 0
-26 -27 0
28 29 30 0
-28 -29 0
-28 -30 0
-29 -30 0
31 32 33 0
-31 -32 0
-31 -33 0
-32 -33 0
34 35 36 0
-34 -35 0
-34 -36 0
-35 -36 0
37 38 39 0
-37 -38 0
-37 -39 0
-38 -39 0
40 41 42 0
-40 -41 0
-40 -42 0
-41 -42 0
43 44 45 0
-43 -44 0
-43 -45 0
-44 -45 0
46 47 48 0
-46 -47 0
-46 -48 0
-47 -48 0
49 50 51 0
-49 -50 0
-49 -51 0
-50 -51 0
52 53 54 0
-52 -53 0
-52 -54 0
-53 -54 0
55 56 57 0
-55 -56 0
-55 -57 0
-56 -57 0
58 59 60 0
-58 -59 0
-58 -60 0
-59 -60 0
61 62 63 0
-61 -62 0
-61 -63 0
-62 -63 0
64 65 66 0
-64 -65 0
-64 -66 0
-65 -66 0
67 68 69 0
-67 -68 0
-67 -69 0
-68 -69 0
70 71 72 0
-70 -71 0
-70 -72 0
-71 -72 0
73 74 75 0
-73 -74 0
-73 -75 0
-74 -75 0
76 77 78 0
-76 -77 0
-76 -78 0
-77 -78 0
79 80 81 0
-79 -80 0
-79 -81 0
-80 -81 0
82 83 84 0
-82 -83 0
-82 -84 0
-83 -84 0
85 86 87 0
-85 -86 0
-85 -87 0
-86 -87 0
88 89 90 0
-88 -89 0
-88 -90 0
-89 -90 0
91 92 93 0
-91 -92 0
-91 -93 0
-92 -93 0
94 95 96 0
-94 -95 0
-94 -96 0
-95 -96 0
97 98 99 0
-97 -98 0
-97 -99 0
-98 -99 0
100 101 102 0
-100 -101 0
-100 -102 0
-101 -102 0
103 104 105 0
-103 -104 0
-103 -105 0
-104 -105 0
106 107 108 0
-106 -107 0
-106 -108 0
-107 -108 0
109 110 111 0
-109 -110 0
-109 -111 0
-110 -111 0
112 113 114 0
-112 -113 0
-112 -114 0
-113 -114 0
115 116 117 0
-115 -116 0
-115 -117 0
-116 -117 0
118 119 120 0
-118 -119 0
-118 -120 0
-119 -120 0
121 122 123 0
-121 -122 0
-121 -123 0
-122 -123 0
124 125 126 0
-124 -125 0
-124 -126 0
-125 -126 0
127 128 129 0
-127 -128 0
-127 -129 0
-128 -129 0
130 131 132 0
-130 -131 0
-130 -132 0
-131 -132 0
133 134 135 0
-133 -134 0
-133 -135 0
-134 -135 0
136 137 138 0
-136 -137 0
-136 -138 0
-137 -138 0
139 140 141 0
-139 -140 0
-139 -141 0
-140 -141 0
142 143 144 0
-142 -143 0
-142 -144 0
-143 -144 0
145 146 147 0
-145 -146 0
-145 -147 0
-146 -147 0
148 149 150 0
-148 -149 0
-148 -150 0
-149 -150 0
151 152 153 0
-151 -152 0
-151 -153 0
-152 -153 0
154 155 156 0
-154 -155 0
-154 -156 0
-155 -156 0
157 158 159 0
-157 -158 0
-157 -159 0
-158 -159 0
160 161 162 0
-160 -161 0
-160 -162 0
-161 -162 0
163 164 165 0
-163 -164 0
-163 -165 0
-164 -165 0
166 167 168 0
-166 -167 0
-166 -168 0
-167 -168 0
169 170 171 0
-169 -170 0
-169 -171 0
-170 -171 0
172 173 174 0
-172 -173 0
-172 -174 0
-173 -174 0
175 176 177 0
-175 -176 0
-175 -177 0
-176 -177 0
178 179 180 0
-178 -179 0
-178 -180 0
-179 -180 0
181 182 183 0
-181 -182 0
-181 -183 0
-182 -183 0
184 185 186 0
-184 -185 0
-184 -186 0
-185 -186 0
187 188 189 0
-187 -188 0
-187 -189 0
-188 -189 0
190 191 192 0
-190 -191 0
-190 -192 0
-191 -192 0
193 194 195 0
-193 -194 0
-193 -195 0
-194 -195 0
196 197 198 0
-196 -197 0
-196 -198 0
-197 -198 0
199 200 201 0
-199 -200 0
-199 -201 0
-200 -201 0
202 203 204 0
-202 -203 0
-202 -204 0
-203 -204 0
205 206 207 0
-205 -206 0
-205 -207 0
-206 -207 0
208 209 210 0
-208 -209 0
-208 -210 0
-209 -210 0
211 212 213 0
-211 -212 0
-211 -213 0
-212 -213 0
214 215 216 0
-214 -215 0
-214 -216 0
-215 -216 0
217 218 219 0
-217 -218 0
-217 -219 0
-218 -219 0
220 221 222 0
-220 -221 0
-220 -222 0
-221 -222 0
223 224 225 0
-223 -224 0
-223 -225 0
-224 -225 0
226 227 228 0
-226 -227 0
-226 -228 0
-227 -228 0
229 230 231 0
-229 -230 0
-229 -231 0
-230 -231 0
232 233 234 0
-232 -233 0
-232 -234 0
-233 -234 0
235 236 237 0
-235 -236 0
-235 -237 0
-236 -237 0
238 239 240 0
-238 -239 0
-238 -240 0
-239 -240 0
241 242 243 0
-241 -242 0
-241 -243 0
-242 -243 0
244 245 246 0
-244 -245 0
-244 -246 0
-245 -246 0
247 248 249 0
-247 -248 0
-247 -249 0
-248 -249 0
250 251 252 0
-250 -251 0
-250 -252 0
-251 -252 0
253 254 255 0
-253 -254 0
-253 -255 0
-254 -255 0
256 257 258 0
-256 -257 0
-256 -258 0
-257 -258 0
259 260 261 0
-259 -260 0
-259 -261 0
-260 -261 0
262 263 264 0
-262 -263 0
-262 -264 0
-263 -264 0
265 266 267 0
-265 -266 0
-265 -267 0
-266 -267 0
268 269 270 0
-268 -269 0
-268 -270 0
-269 -270 0
271 272 273 0
-271 -272 0
-271 -273 0
-272 -273 0
274 275 276 0
-274 -275 0
-274 -276 0
-275 -276 0
277 278 279 0
-277 -278 0
-277 -279 0
-278 -279 0
280 281 282 0
-280 -281 0
-280 -282 0
-281 -282 0
283 284 285 0
-283 -284 0
-283 -285 0
-284 -285 0
286 287 288 0
-286 -287 0
-286 -288 0
-287 -288 0
289 290 291 0
-289 -290 0
-289 -291 0
-290 -291 0
292 293 294 0
-292 -293 0
-292 -294 0
-293 -294 0
-1 -22 0
-2 -23 0
-3 -24 0
-1 -46 0
-2 -47 0
-3 -48 0
-1 -58 0
-2 -59 0
-3 -60 0
-1 -64 0
-2 -65 0
-3 -66 0
-1 -262 0
-2 -263 0
-3 -264 0
-4 -10 0
-5 -11 0
-6 -12 0
-4 -82 0
-5 -83 0
-6 -84 0
-4 -85 0
-5 -86 0
-6 -87 0
-4 -205 0
-5 -206 0
-6 -207 0
-4 -277 0
-5 -278 0
-6 -279 0
-7 -67 0
-8 -68 0
-9 -69 0
-7 -91 0
-8 -92 0
-9 -93 0
-7 -97 0
-8 -98 0
-9 -99 0
-7 -160 0
-8 -161 0
-9 -162 0
-7 -187 0
-8 -188 0
-9 -189 0
-10 -139 0
-11 -140 0
-12 -141 0
-10 -244 0
-11 -245 0
-12 -246 0
-10 -247 0
-11 -248 0
-12 -249 0
-10 -274 0
-11 -275 0
-12 -276 0
-13 -55 0
-14 -56 0
-15 -57 0
-13 -64 0
-14 -65 0
-15 -66 0
-13 -76 0
-14 -77 0
-15 -78 0
-13 -196 0
-14 -197 0
-15 -198 0
-13 -247 0
-14 -248 0
-15 -249 0
-16 -19 0
-17 -20 0
-18 -21 0
-16 -22 0
-17 -23 0
-18 -24 0
-16 -88 0
-17 -89 0
-18 -90 0
-16 -121 0
-17 -122 0
-18 -123 0
-16 -250 0
-17 -251 0
-18 -252 0
-19 -49 0
-20 -50 0
-21 -51 0
-19 -73 0
-20 -74 0
-21 -75 0
-19 -148 0
-20 -149 0
-21 -150 0
-19 -256 0
-20 -257 0
-21 -258 0
-22 -28 0
-23 -29 0
-24 -30 0
-22 -109 0
-23 -110 0
-24 -111 0
-22 -199 0
-23 -200 0
-24 -201 0
-25 -70 0
-26 -71 0
-27 -72 0
-25 -118 0
-26 -119 0
-27 -120 0
-25 -241 0
-26 -242 0
-27 -243 0
-25 -265 0
-26 -266 0
-27 -267 0
-25 -274 0
-26 -275 0
-27 -276 0
-28 -115 0
-29 -116 0
-30 -117 0
-28 -205 0
-29 -206 0
-30 -207 0
-28 -217 0
-29 -218 0
-30 -219 0
-28 -256 0
-29 -257 0
-30 -258 0
-31 -58 0
-32 -59 0
-33 -60 0
-31 -61 0
-32 -62 0
-33 -63 0
-31 -79 0
-32 -80 0
-33 -81 0
-31 -88 0
-32 -89 0
-33 -90 0
-31 -232 0
-32 -233 0
-33 -234 0
-34 -112 0
-35 -113 0
-36 -114 0
-34 -169 0
-35 -170 0
-36 -171 0
-34 -205 0
-35 -206 0
-36 -207 0
-34 -241 0
-35 -242 0
-36 -243 0
-34 -262 0
-35 -263 0
-36 -264 0
-37 -43 0
-38 -44 0
-39 -45 0
-37 -46 0
-38 -47 0
-39 -48 0
-37 -142 0
-38 -143 0
-39 -144 0
-37 -145 0
-38 -146 0
-39 -147 0
-37 -271 0
-38 -272 0
-39 -273 0
-40 -106 0
-41 -107 0
-42 -108 0
-40 -142 0
-41 -143 0
-42 -144 0
-40 -157 0
-41 -158 0
-42 -159 0
-40 -217 0
-41 -218 0
-42 -219 0
-40 -220 0
-41 -221 0
-42 -222 0
-43 -55 0
-44 -56 0
-45 -57 0
-43 -73 0
-44 -74 0
-45 -75 0
-43 -76 0
-44 -77 0
-45 -78 0
-43 -163 0
-44 -164 0
-45 -165 0
-46 -163 0
-47 -164 0
-48 -165 0
-46 -190 0
-47 -191 0
-48 -192 0
-46 -208 0
-47 -209 0
-48 -210 0
-49 -67 0
-50 -68 0
-51 -69 0
-49 -100 0
-50 -101 0
-51 -102 0
-49 -127 0
-50 -128 0
-51 -129 0
-49 -250 0
-50 -251 0
-51 -252 0
-52 -79 0
-53 -80 0
-54 -81 0
-52 -130 0
-53 -131 0
-54 -132 0
-52 -160 0
-53 -161 0
-54 -162 0
-52 -226 0
-53 -227 0
-54 -228 0
-52 -292 0
-53 -293 0
-54 -294 0
-55 -196 0
-56 -197 0
-57 -198 0
-55 -223 0
-56 -224 0
-57 -225 0
-55 -280 0
-56 -281 0
-57 -282 0
-58 -91 0
-59 -92 0
-60 -93 0
-58 -151 0
-59 -152 0
-60 -153 0
-58 -175 0
-59 -176 0
-60 -177 0
-61 -64 0
-62 -65 0
-63 -66 0
-61 -118 0
-62 -119 0
-63 -120 0
-61 -205 0
-62 -206 0
-63 -207 0
-61 -292 0
-62 -293 0
-63 -294 0
-64 -136 0
-65 -137 0
-66 -138 0
-64 -172 0
-65 -173 0
-66 -174 0
-67 -184 0
-68 -185 0
-69 -186 0
-67 -223 0
-68 -224 0
-69 -225 0
-67 -253 0
-68 -254 0
-69 -255 0
-70 -100 0
-71 -101 0
-72 -102 0
-70 -211 0
-71 -212 0
-72 -213 0
-70 -220 0
-71 -221 0
-72 -222 0
-70 -262 0
-71 -263 0
-72 -264 0
-73 -166 0
-74 -167 0
-75 -168 0
-73 -178 0
-74 -179 0
-75 -180 0
-73 -283 0
-74 -284 0
-75 -285 0
-76 -79 0
-77 -80 0
-78 -81 0
-76 -97 0
-77 -98 0
-78 -99 0
-76 -235 0
-77 -236 0
-78 -237 0
-79 -157 0
-80 -158 0
-81 -159 0
-79 -253 0
-80 -254 0
-81 -255 0
-82 -190 0
-83 -191 0
-84 -192 0
-82 -196 0
-83 -197 0
-84 -198 0
-82 -253 0
-83 -254 0
-84 -255 0
-82 -292 0
-83 -293 0
-84 -294 0
-85 -109 0
-86 -110 0
-87 -111 0
-85 -145 0
-86 -146 0
-87 -147 0
-85 -217 0
-86 -218 0
-87 -219 0
-85 -262 0
-86 -263 0
-87 -264 0
-88 -187 0
-89 -188 0
-90 -189 0
-88 -190 0
-89 -191 0
-90 -192 0
-88 -208 0
-89 -209 0
-90 -210 0
-91 -103 0
-92 -104 0
-93 -105 0
-91 -127 0
-92 -128 0
-93 -129 0
-91 -250 0
-92 -251 0
-93 -252 0
-94 -100 0
-95 -101 0
-96 -102 0
-94 -184 0
-95 -185 0
-96 -186 0
-94 -241 0
-95 -242 0
-96 -243 0
-94 -286 0
-95 -287 0
-96 -288 0
-94 -292 0
-95 -293 0
-96 -294 0
-97 -208 0
-98 -209 0
-99 -210 0
-97 -259 0
-98 -260 0
-99 -261 0
-97 -268 0
-98 -269 0
-99 -270 0
-100 -184 0
-101 -185 0
-102 -186 0
-100 -187 0
-101 -188 0
-102 -189 0
-103 -154 0
-104 -155 0
-105 -156 0
-103 -238 0
-104 -239 0
-105 -240 0
-103 -244 0
-104 -245 0
-105 -246 0
-103 -259 0
-104 -260 0
-105 -261 0
-106 -130 0
-107 -131 0
-108 -132 0
-106 -145 0
-107 -146 0
-108 -147 0
-106 -187 0
-107 -188 0
-108 -189 0
-106 -241 0
-107 -242 0
-108 -243 0
-109 -154 0
-110 -155 0
-111 -156 0
-109 -166 0
-110 -167 0
-111 -168 0
-109 -226 0
-110 -227 0
-111 -228 0
-112 -133 0
-113 -134 0
-114 -135 0
-112 -184 0
-113 -185 0
-114 -186 0
-112 -274 0
-113 -275 0
-114 -276 0
-112 -286 0
-113 -287 0
-114 -288 0
-115 -151 0
-116 -152 0
-117 -153 0
-115 -181 0
-116 -182 0
-117 -183 0
-115 -190 0
-116 -191 0
-117 -192 0
-115 -271 0
-116 -272 0
-117 -273 0
-118 -202 0
-119 -203 0
-120 -204 0
-118 -223 0
-119 -224 0
-120 -225 0
-118 -232 0
-119 -233 0
-120 -234 0
-121 -175 0
-122 -176 0
-123 -177 0
-121 -226 0
-122 -227 0
-123 -228 0
-121 -265 0
-122 -266 0
-123 -267 0
-121 -292 0
-122 -293 0
-123 -294 0
-124 -202 0
-125 -203 0
-126 -204 0
-124 -205 0
-125 -206 0
-126 -207 0
-124 -217 0
-125 -218 0
-126 -219 0
-124 -229 0
-125 -230 0
-126 -231 0
-124 -271 0
-125 -272 0
-126 -273 0
-127 -139 0
-128 -140 0
-129 -141 0
-127 -154 0
-128 -155 0
-129 -156 0
-127 -250 0
-128 -251 0
-129 -252 0
-130 -172 0
-131 -173 0
-132 -174 0
-130 -232 0
-131 -233 0
-132 -234 0
-130 -271 0
-131 -272 0
-132 -273 0
-133 -136 0
-134 -137 0
-135 -138 0
-133 -226 0
-134 -227 0
-135 -228 0
-133 -244 0
-134 -245 0
-135 -246 0
-133 -262 0
-134 -263 0
-135 -264 0
-136 -214 0
-137 -215 0
-138 -216 0
-136 -229 0
-137 -230 0
-138 -231 0
-136 -277 0
-137 -278 0
-138 -279 0
-139 -151 0
-140 -152 0
-141 -153 0
-139 -229 0
-140 -230 0
-141 -231 0
-139 -238 0
-140 -239 0
-141 -240 0
-142 -169 0
-143 -170 0
-144 -171 0
-142 -178 0
-143 -179 0
-144 -180 0
-142 -238 0
-143 -239 0
-144 -240 0
-145 -169 0
-146 -170 0
-147 -171 0
-145 -214 0
-146 -215 0
-147 -216 0
-148 -166 0
-149 -167 0
-150 -168 0
-148 -235 0
-149 -236 0
-150 -237 0
-148 -277 0
-149 -278 0
-150 -279 0
-148 -289 0
-149 -290 0
-150 -291 0
-151 -181 0
-152 -182 0
-153 -183 0
-151 -196 0
-152 -197 0
-153 -198 0
-154 -163 0
-155 -164 0
-156 -165 0
-154 -199 0
-155 -200 0
-156 -201 0
-157 -175 0
-158 -176 0
-159 -177 0
-157 -193 0
-158 -194 0
-159 -195 0
-157 -244 0
-158 -245 0
-159 -246 0
-160 -211 0
-161 -212 0
-162 -213 0
-160 -214 0
-161 -215 0
-162 -216 0
-160 -280 0
-161 -281 0
-162 -282 0
-163 -202 0
-164 -203 0
-165 -204 0
-163 -241 0
-164 -242 0
-165 -243 0
-166 -220 0
-167 -221 0
-168 -222 0
-166 -253 0
-167 -254 0
-168 -255 0
-169 -226 0
-170 -227 0
-171 -228 0
-169 -247 0
-170 -248 0
-171 -249 0
-172 -190 0
-173 -191 0
-174 -192 0
-172 -268 0
-173 -269 0
-174 -270 0
-172 -274 0
-173 -275 0
-174 -276 0
-175 -178 0
-176 -179 0
-177 -180 0
-175 -199 0
-176 -200 0
-177 -201 0
-178 -247 0
-179 -248 0
-180 -249 0
-178 -268 0
-179 -269 0
-180 -270 0
-181 -277 0
-182 -278 0
-183 -279 0
-181 -286 0
-182 -287 0
-183 -288 0
-181 -289 0
-182 -290 0
-183 -291 0
-184 -286 0
-185 -287 0
-186 -288 0
-187 -220 0
-188 -221 0
-189 -222 0
-193 -256 0
-194 -257 0
-195 -258 0
-193 -259 0
-194 -260 0
-195 -261 0
-193 -265 0
-194 -266 0
-195 -267 0
-193 -280 0
-194 -281 0
-195 -282 0
-196 -268 0
-197 -269 0
-198 -270 0
-199 -235 0
-200 -236 0
-201 -237 0
-199 -289 0
-200 -290 0
-201 -291 0
-202 -229 0
-203 -230 0
-204 -231 0
-202 -283 0
-203 -284 0
-204 -285 0
-208 -214 0
-209 -215 0
-210 -216 0
-208 -244 0
-209 -245 0
-210 -246 0
-211 -232 0
-212 -233 0
-213 -234 0
-211 -259 0
-212 -260 0
-213 -261 0
-211 -283 0
-212 -284 0
-213 -285 0
-214 -256 0
-215 -257 0
-216 -258 0
-217 -247 0
-218 -248 0
-219 -249 0
-220 -223 0
-221 -224 0
-222 -225 0
-223 -289 0
-224 -290 0
-225 -291 0
-229 -235 0
-230 -236 0
-231 -237 0
-232 -286 0
-233 -287 0
-234 -288 0
-235 -265 0
-236 -266 0
-237 -267 0
-238 -253 0
-239 -254 0
-240 -255 0
-238 -271 0
-239 -272 0
-240 -273 0
-250 -283 0
-251 -284 0
-252 -285 0
-256 -259 0
-257 -260 0
-258 -261 0
-265 -274 0
-266 -275 0
-267 -276 0
-268 -280 0
-269 -281 0
-270 -282 0
-277 -289 0
-278 -290 0
-279 -291 0
-280 -283 0
-281 -284 0
-282 -285 0
